p edge 109 2932
e 1 2
e 1 3
e 1 5
e 1 6
e 1 8
e 1 10
e 1 11
e 1 14
e 1 20
e 1 22
e 1 26
e 1 27
e 1 28
e 1 29
e 1 30
e 1 32
e 1 33
e 1 36
e 1 38
e 1 41
e 1 44
e 1 45
e 1 47
e 1 51
e 1 55
e 1 57
e 1 58
e 1 60
e 1 62
e 1 63
e 1 64
e 1 68
e 1 70
e 1 71
e 1 73
e 1 74
e 1 78
e 1 80
e 1 83
e 1 84
e 1 86
e 1 88
e 1 91
e 1 98
e 1 99
e 1 103
e 1 104
e 1 105
e 2 3
e 2 4
e 2 5
e 2 6
e 2 10
e 2 11
e 2 12
e 2 16
e 2 21
e 2 25
e 2 27
e 2 31
e 2 32
e 2 33
e 2 34
e 2 35
e 2 36
e 2 40
e 2 42
e 2 46
e 2 47
e 2 50
e 2 52
e 2 53
e 2 54
e 2 55
e 2 58
e 2 60
e 2 63
e 2 64
e 2 65
e 2 67
e 2 69
e 2 71
e 2 72
e 2 75
e 2 76
e 2 78
e 2 79
e 2 81
e 2 82
e 2 83
e 2 84
e 2 86
e 2 89
e 2 90
e 2 92
e 2 94
e 2 96
e 2 97
e 2 98
e 2 102
e 2 103
e 2 104
e 2 106
e 2 107
e 2 108
e 2 109
e 3 4
e 3 5
e 3 6
e 3 7
e 3 8
e 3 10
e 3 11
e 3 13
e 3 14
e 3 15
e 3 19
e 3 21
e 3 26
e 3 27
e 3 28
e 3 30
e 3 32
e 3 33
e 3 38
e 3 39
e 3 40
e 3 41
e 3 44
e 3 46
e 3 47
e 3 49
e 3 50
e 3 54
e 3 55
e 3 57
e 3 58
e 3 64
e 3 65
e 3 68
e 3 69
e 3 70
e 3 72
e 3 75
e 3 77
e 3 79
e 3 80
e 3 81
e 3 82
e 3 83
e 3 85
e 3 86
e 3 87
e 3 88
e 3 89
e 3 92
e 3 96
e 3 99
e 3 102
e 3 104
e 3 107
e 3 108
e 4 5
e 4 6
e 4 7
e 4 10
e 4 11
e 4 15
e 4 16
e 4 17
e 4 18
e 4 20
e 4 22
e 4 23
e 4 24
e 4 29
e 4 32
e 4 35
e 4 38
e 4 39
e 4 42
e 4 43
e 4 46
e 4 47
e 4 49
e 4 52
e 4 54
e 4 55
e 4 58
e 4 59
e 4 60
e 4 65
e 4 66
e 4 67
e 4 68
e 4 69
e 4 70
e 4 78
e 4 79
e 4 80
e 4 81
e 4 82
e 4 83
e 4 84
e 4 87
e 4 88
e 4 89
e 4 91
e 4 93
e 4 94
e 4 96
e 4 97
e 4 98
e 4 99
e 4 101
e 4 102
e 4 103
e 4 104
e 4 106
e 4 109
e 5 6
e 5 9
e 5 12
e 5 13
e 5 15
e 5 16
e 5 18
e 5 19
e 5 21
e 5 23
e 5 24
e 5 27
e 5 28
e 5 29
e 5 30
e 5 31
e 5 32
e 5 33
e 5 36
e 5 40
e 5 41
e 5 42
e 5 43
e 5 44
e 5 48
e 5 51
e 5 52
e 5 53
e 5 54
e 5 55
e 5 57
e 5 59
e 5 63
e 5 64
e 5 65
e 5 68
e 5 69
e 5 70
e 5 72
e 5 74
e 5 75
e 5 78
e 5 79
e 5 83
e 5 86
e 5 87
e 5 89
e 5 90
e 5 91
e 5 93
e 5 94
e 5 96
e 5 97
e 5 99
e 5 100
e 5 101
e 5 103
e 5 105
e 5 106
e 5 109
e 6 11
e 6 12
e 6 17
e 6 18
e 6 19
e 6 20
e 6 21
e 6 29
e 6 30
e 6 32
e 6 33
e 6 36
e 6 39
e 6 40
e 6 41
e 6 42
e 6 43
e 6 45
e 6 48
e 6 50
e 6 51
e 6 52
e 6 53
e 6 54
e 6 55
e 6 56
e 6 58
e 6 59
e 6 60
e 6 62
e 6 63
e 6 65
e 6 68
e 6 71
e 6 78
e 6 81
e 6 83
e 6 89
e 6 92
e 6 95
e 6 99
e 6 101
e 6 102
e 6 103
e 6 105
e 6 106
e 7 8
e 7 9
e 7 10
e 7 11
e 7 12
e 7 13
e 7 14
e 7 20
e 7 22
e 7 27
e 7 28
e 7 30
e 7 33
e 7 36
e 7 37
e 7 39
e 7 40
e 7 41
e 7 42
e 7 47
e 7 49
e 7 50
e 7 52
e 7 53
e 7 54
e 7 56
e 7 58
e 7 61
e 7 63
e 7 64
e 7 66
e 7 67
e 7 68
e 7 69
e 7 71
e 7 73
e 7 74
e 7 75
e 7 76
e 7 85
e 7 86
e 7 88
e 7 90
e 7 93
e 7 94
e 7 95
e 7 96
e 7 97
e 7 98
e 7 99
e 7 107
e 7 108
e 8 9
e 8 12
e 8 14
e 8 15
e 8 16
e 8 17
e 8 18
e 8 22
e 8 26
e 8 27
e 8 28
e 8 34
e 8 35
e 8 37
e 8 38
e 8 39
e 8 40
e 8 41
e 8 42
e 8 43
e 8 44
e 8 45
e 8 46
e 8 47
e 8 48
e 8 49
e 8 53
e 8 56
e 8 57
e 8 58
e 8 59
e 8 60
e 8 61
e 8 62
e 8 63
e 8 64
e 8 65
e 8 67
e 8 69
e 8 71
e 8 75
e 8 76
e 8 77
e 8 82
e 8 83
e 8 84
e 8 86
e 8 87
e 8 88
e 8 91
e 8 92
e 8 94
e 8 95
e 8 96
e 8 97
e 8 98
e 8 101
e 8 102
e 8 104
e 9 12
e 9 14
e 9 15
e 9 16
e 9 17
e 9 18
e 9 19
e 9 21
e 9 22
e 9 30
e 9 32
e 9 33
e 9 39
e 9 43
e 9 44
e 9 45
e 9 46
e 9 51
e 9 52
e 9 53
e 9 54
e 9 55
e 9 59
e 9 60
e 9 62
e 9 63
e 9 64
e 9 68
e 9 72
e 9 73
e 9 75
e 9 77
e 9 79
e 9 80
e 9 81
e 9 89
e 9 90
e 9 91
e 9 92
e 9 94
e 9 95
e 9 96
e 9 97
e 9 98
e 9 99
e 9 100
e 9 101
e 9 102
e 9 103
e 9 106
e 9 108
e 9 109
e 10 12
e 10 18
e 10 20
e 10 22
e 10 23
e 10 26
e 10 28
e 10 31
e 10 32
e 10 38
e 10 41
e 10 44
e 10 45
e 10 46
e 10 47
e 10 48
e 10 51
e 10 52
e 10 53
e 10 54
e 10 55
e 10 57
e 10 58
e 10 60
e 10 61
e 10 67
e 10 71
e 10 72
e 10 73
e 10 75
e 10 78
e 10 79
e 10 80
e 10 84
e 10 85
e 10 86
e 10 88
e 10 90
e 10 93
e 10 97
e 10 98
e 10 99
e 10 101
e 10 104
e 10 105
e 10 106
e 11 13
e 11 16
e 11 17
e 11 18
e 11 20
e 11 24
e 11 25
e 11 26
e 11 31
e 11 36
e 11 38
e 11 39
e 11 41
e 11 44
e 11 45
e 11 46
e 11 47
e 11 48
e 11 49
e 11 57
e 11 58
e 11 63
e 11 64
e 11 65
e 11 66
e 11 68
e 11 69
e 11 70
e 11 73
e 11 75
e 11 76
e 11 77
e 11 79
e 11 80
e 11 81
e 11 82
e 11 88
e 11 94
e 11 95
e 11 96
e 11 97
e 11 99
e 11 101
e 11 104
e 12 13
e 12 15
e 12 16
e 12 17
e 12 18
e 12 22
e 12 24
e 12 26
e 12 28
e 12 29
e 12 31
e 12 32
e 12 33
e 12 35
e 12 37
e 12 38
e 12 39
e 12 43
e 12 45
e 12 47
e 12 48
e 12 51
e 12 52
e 12 58
e 12 60
e 12 61
e 12 65
e 12 67
e 12 69
e 12 70
e 12 72
e 12 73
e 12 76
e 12 77
e 12 78
e 12 81
e 12 83
e 12 86
e 12 88
e 12 89
e 12 90
e 12 91
e 12 92
e 12 95
e 12 98
e 12 101
e 12 102
e 12 103
e 12 104
e 12 105
e 12 106
e 12 107
e 12 108
e 12 109
e 13 15
e 13 16
e 13 17
e 13 20
e 13 21
e 13 22
e 13 23
e 13 30
e 13 33
e 13 34
e 13 35
e 13 37
e 13 39
e 13 40
e 13 42
e 13 46
e 13 47
e 13 48
e 13 49
e 13 53
e 13 54
e 13 60
e 13 63
e 13 65
e 13 66
e 13 67
e 13 68
e 13 71
e 13 73
e 13 74
e 13 75
e 13 76
e 13 77
e 13 79
e 13 83
e 13 88
e 13 89
e 13 90
e 13 98
e 13 99
e 13 101
e 13 102
e 13 106
e 13 107
e 13 108
e 14 17
e 14 19
e 14 20
e 14 21
e 14 22
e 14 23
e 14 24
e 14 26
e 14 27
e 14 31
e 14 32
e 14 33
e 14 35
e 14 36
e 14 37
e 14 40
e 14 41
e 14 43
e 14 44
e 14 45
e 14 46
e 14 47
e 14 49
e 14 50
e 14 51
e 14 52
e 14 54
e 14 58
e 14 59
e 14 60
e 14 61
e 14 62
e 14 63
e 14 66
e 14 67
e 14 69
e 14 70
e 14 71
e 14 78
e 14 89
e 14 90
e 14 91
e 14 92
e 14 94
e 14 95
e 14 96
e 14 97
e 14 101
e 14 107
e 14 108
e 14 109
e 15 18
e 15 19
e 15 22
e 15 24
e 15 26
e 15 30
e 15 31
e 15 32
e 15 34
e 15 36
e 15 37
e 15 39
e 15 40
e 15 42
e 15 43
e 15 44
e 15 45
e 15 46
e 15 50
e 15 51
e 15 52
e 15 53
e 15 55
e 15 57
e 15 60
e 15 63
e 15 68
e 15 70
e 15 74
e 15 75
e 15 76
e 15 77
e 15 78
e 15 81
e 15 82
e 15 83
e 15 84
e 15 85
e 15 86
e 15 88
e 15 89
e 15 90
e 15 91
e 15 95
e 15 102
e 15 103
e 15 104
e 15 107
e 15 109
e 16 18
e 16 22
e 16 24
e 16 28
e 16 30
e 16 31
e 16 34
e 16 39
e 16 42
e 16 43
e 16 44
e 16 46
e 16 47
e 16 50
e 16 51
e 16 52
e 16 56
e 16 57
e 16 58
e 16 59
e 16 65
e 16 66
e 16 68
e 16 72
e 16 76
e 16 77
e 16 78
e 16 79
e 16 80
e 16 81
e 16 85
e 16 86
e 16 88
e 16 89
e 16 93
e 16 97
e 16 99
e 16 101
e 16 103
e 16 104
e 16 105
e 16 106
e 16 108
e 17 20
e 17 21
e 17 23
e 17 27
e 17 29
e 17 30
e 17 31
e 17 32
e 17 39
e 17 41
e 17 43
e 17 44
e 17 47
e 17 48
e 17 49
e 17 53
e 17 54
e 17 55
e 17 56
e 17 59
e 17 61
e 17 62
e 17 64
e 17 68
e 17 69
e 17 70
e 17 71
e 17 75
e 17 78
e 17 80
e 17 81
e 17 83
e 17 84
e 17 85
e 17 86
e 17 88
e 17 89
e 17 91
e 17 93
e 17 94
e 17 95
e 17 96
e 17 97
e 17 98
e 17 100
e 17 104
e 17 107
e 17 109
e 18 23
e 18 25
e 18 26
e 18 27
e 18 28
e 18 29
e 18 31
e 18 35
e 18 37
e 18 39
e 18 44
e 18 45
e 18 46
e 18 48
e 18 51
e 18 52
e 18 56
e 18 58
e 18 62
e 18 64
e 18 65
e 18 66
e 18 67
e 18 69
e 18 70
e 18 75
e 18 77
e 18 80
e 18 81
e 18 82
e 18 84
e 18 87
e 18 88
e 18 94
e 18 99
e 18 102
e 18 103
e 18 104
e 18 105
e 18 106
e 18 107
e 19 20
e 19 21
e 19 22
e 19 24
e 19 25
e 19 26
e 19 31
e 19 33
e 19 34
e 19 35
e 19 36
e 19 37
e 19 42
e 19 45
e 19 46
e 19 47
e 19 49
e 19 50
e 19 51
e 19 54
e 19 55
e 19 58
e 19 59
e 19 63
e 19 66
e 19 68
e 19 69
e 19 70
e 19 71
e 19 78
e 19 86
e 19 87
e 19 88
e 19 89
e 19 91
e 19 92
e 19 93
e 19 94
e 19 96
e 19 99
e 19 100
e 19 103
e 19 105
e 19 106
e 19 107
e 19 108
e 20 21
e 20 24
e 20 26
e 20 29
e 20 30
e 20 31
e 20 32
e 20 35
e 20 36
e 20 37
e 20 41
e 20 42
e 20 43
e 20 44
e 20 49
e 20 53
e 20 55
e 20 56
e 20 57
e 20 59
e 20 60
e 20 61
e 20 63
e 20 65
e 20 69
e 20 70
e 20 72
e 20 73
e 20 74
e 20 75
e 20 77
e 20 78
e 20 83
e 20 85
e 20 86
e 20 87
e 20 91
e 20 93
e 20 94
e 20 97
e 20 99
e 20 100
e 20 101
e 20 102
e 20 105
e 20 106
e 20 107
e 20 109
e 21 24
e 21 26
e 21 27
e 21 28
e 21 29
e 21 30
e 21 32
e 21 33
e 21 35
e 21 36
e 21 37
e 21 42
e 21 46
e 21 47
e 21 49
e 21 51
e 21 53
e 21 54
e 21 56
e 21 58
e 21 64
e 21 65
e 21 66
e 21 67
e 21 68
e 21 74
e 21 78
e 21 81
e 21 84
e 21 87
e 21 88
e 21 89
e 21 90
e 21 92
e 21 94
e 21 96
e 21 98
e 21 99
e 21 102
e 21 103
e 21 106
e 21 107
e 21 108
e 21 109
e 22 23
e 22 25
e 22 27
e 22 28
e 22 32
e 22 36
e 22 37
e 22 39
e 22 41
e 22 47
e 22 48
e 22 49
e 22 50
e 22 51
e 22 52
e 22 53
e 22 56
e 22 60
e 22 61
e 22 63
e 22 64
e 22 67
e 22 74
e 22 82
e 22 85
e 22 88
e 22 89
e 22 90
e 22 91
e 22 92
e 22 93
e 22 94
e 22 97
e 22 101
e 22 105
e 22 107
e 23 24
e 23 25
e 23 26
e 23 27
e 23 30
e 23 31
e 23 35
e 23 36
e 23 37
e 23 38
e 23 39
e 23 42
e 23 43
e 23 44
e 23 48
e 23 52
e 23 57
e 23 59
e 23 60
e 23 61
e 23 62
e 23 63
e 23 64
e 23 66
e 23 70
e 23 74
e 23 75
e 23 76
e 23 77
e 23 79
e 23 81
e 23 86
e 23 88
e 23 89
e 23 90
e 23 91
e 23 92
e 23 94
e 23 95
e 23 96
e 23 97
e 23 99
e 23 100
e 23 101
e 23 102
e 23 107
e 23 108
e 23 109
e 24 27
e 24 28
e 24 29
e 24 30
e 24 35
e 24 36
e 24 37
e 24 38
e 24 41
e 24 43
e 24 44
e 24 48
e 24 50
e 24 52
e 24 53
e 24 54
e 24 55
e 24 56
e 24 58
e 24 62
e 24 63
e 24 65
e 24 66
e 24 67
e 24 68
e 24 69
e 24 71
e 24 72
e 24 74
e 24 76
e 24 77
e 24 78
e 24 80
e 24 81
e 24 82
e 24 84
e 24 85
e 24 86
e 24 88
e 24 89
e 24 91
e 24 93
e 24 95
e 24 97
e 24 99
e 24 101
e 24 102
e 24 105
e 24 107
e 24 108
e 24 109
e 25 26
e 25 27
e 25 30
e 25 31
e 25 34
e 25 35
e 25 39
e 25 40
e 25 41
e 25 43
e 25 44
e 25 45
e 25 48
e 25 50
e 25 51
e 25 52
e 25 53
e 25 55
e 25 58
e 25 59
e 25 60
e 25 64
e 25 66
e 25 67
e 25 69
e 25 70
e 25 71
e 25 72
e 25 73
e 25 74
e 25 75
e 25 78
e 25 79
e 25 80
e 25 85
e 25 88
e 25 98
e 25 101
e 25 104
e 25 105
e 25 107
e 25 108
e 26 28
e 26 31
e 26 35
e 26 36
e 26 38
e 26 44
e 26 50
e 26 51
e 26 53
e 26 55
e 26 57
e 26 61
e 26 62
e 26 67
e 26 68
e 26 73
e 26 74
e 26 77
e 26 78
e 26 79
e 26 83
e 26 84
e 26 85
e 26 86
e 26 88
e 26 90
e 26 91
e 26 93
e 26 95
e 26 96
e 26 102
e 26 105
e 26 106
e 26 107
e 26 108
e 26 109
e 27 28
e 27 29
e 27 30
e 27 33
e 27 37
e 27 38
e 27 39
e 27 43
e 27 44
e 27 46
e 27 47
e 27 50
e 27 54
e 27 55
e 27 56
e 27 57
e 27 59
e 27 61
e 27 63
e 27 65
e 27 69
e 27 71
e 27 73
e 27 74
e 27 75
e 27 77
e 27 82
e 27 83
e 27 84
e 27 85
e 27 86
e 27 89
e 27 90
e 27 91
e 27 92
e 27 98
e 27 99
e 27 100
e 27 103
e 27 106
e 27 107
e 27 108
e 28 29
e 28 35
e 28 36
e 28 40
e 28 41
e 28 45
e 28 46
e 28 47
e 28 48
e 28 51
e 28 55
e 28 57
e 28 58
e 28 62
e 28 64
e 28 66
e 28 70
e 28 71
e 28 72
e 28 76
e 28 77
e 28 80
e 28 81
e 28 85
e 28 87
e 28 89
e 28 91
e 28 92
e 28 95
e 28 97
e 28 98
e 28 100
e 28 101
e 28 102
e 28 104
e 28 107
e 29 30
e 29 35
e 29 36
e 29 38
e 29 40
e 29 41
e 29 42
e 29 44
e 29 45
e 29 46
e 29 47
e 29 49
e 29 50
e 29 51
e 29 52
e 29 54
e 29 55
e 29 57
e 29 62
e 29 63
e 29 67
e 29 69
e 29 74
e 29 75
e 29 76
e 29 78
e 29 79
e 29 84
e 29 85
e 29 86
e 29 88
e 29 89
e 29 90
e 29 92
e 29 93
e 29 95
e 29 96
e 29 97
e 29 102
e 29 103
e 29 105
e 29 106
e 29 107
e 29 108
e 29 109
e 30 33
e 30 35
e 30 38
e 30 39
e 30 40
e 30 42
e 30 44
e 30 47
e 30 50
e 30 51
e 30 57
e 30 59
e 30 60
e 30 61
e 30 63
e 30 64
e 30 68
e 30 69
e 30 70
e 30 73
e 30 74
e 30 75
e 30 77
e 30 78
e 30 84
e 30 87
e 30 88
e 30 89
e 30 90
e 30 92
e 30 93
e 30 94
e 30 96
e 30 97
e 30 98
e 30 100
e 30 102
e 30 106
e 30 108
e 30 109
e 31 35
e 31 36
e 31 37
e 31 38
e 31 41
e 31 45
e 31 46
e 31 48
e 31 55
e 31 57
e 31 58
e 31 59
e 31 64
e 31 65
e 31 67
e 31 69
e 31 72
e 31 74
e 31 75
e 31 76
e 31 78
e 31 80
e 31 81
e 31 82
e 31 84
e 31 88
e 31 90
e 31 91
e 31 93
e 31 94
e 31 95
e 31 98
e 31 99
e 31 100
e 31 102
e 31 107
e 32 33
e 32 36
e 32 37
e 32 38
e 32 39
e 32 43
e 32 45
e 32 48
e 32 49
e 32 52
e 32 53
e 32 54
e 32 58
e 32 64
e 32 67
e 32 68
e 32 73
e 32 75
e 32 78
e 32 79
e 32 80
e 32 81
e 32 82
e 32 83
e 32 85
e 32 87
e 32 88
e 32 91
e 32 92
e 32 93
e 32 94
e 32 95
e 32 96
e 32 98
e 32 102
e 32 103
e 32 104
e 32 106
e 32 108
e 33 35
e 33 36
e 33 41
e 33 44
e 33 46
e 33 48
e 33 49
e 33 51
e 33 53
e 33 54
e 33 55
e 33 57
e 33 58
e 33 59
e 33 60
e 33 61
e 33 62
e 33 66
e 33 67
e 33 69
e 33 71
e 33 74
e 33 75
e 33 76
e 33 81
e 33 85
e 33 88
e 33 89
e 33 91
e 33 95
e 33 96
e 33 97
e 33 99
e 33 100
e 33 101
e 33 102
e 33 103
e 33 104
e 33 105
e 33 107
e 33 109
e 34 36
e 34 37
e 34 41
e 34 43
e 34 44
e 34 48
e 34 49
e 34 50
e 34 52
e 34 53
e 34 55
e 34 56
e 34 57
e 34 61
e 34 64
e 34 68
e 34 71
e 34 74
e 34 75
e 34 80
e 34 81
e 34 82
e 34 85
e 34 86
e 34 88
e 34 89
e 34 90
e 34 92
e 34 94
e 34 96
e 34 102
e 34 103
e 34 104
e 34 105
e 34 106
e 34 107
e 34 108
e 34 109
e 35 38
e 35 44
e 35 45
e 35 51
e 35 53
e 35 55
e 35 56
e 35 57
e 35 59
e 35 60
e 35 64
e 35 65
e 35 66
e 35 68
e 35 70
e 35 71
e 35 72
e 35 73
e 35 75
e 35 76
e 35 78
e 35 79
e 35 80
e 35 83
e 35 86
e 35 87
e 35 88
e 35 94
e 35 95
e 35 104
e 35 105
e 35 106
e 35 107
e 35 108
e 36 37
e 36 38
e 36 40
e 36 41
e 36 42
e 36 43
e 36 44
e 36 46
e 36 49
e 36 50
e 36 53
e 36 54
e 36 55
e 36 57
e 36 58
e 36 64
e 36 65
e 36 66
e 36 69
e 36 70
e 36 73
e 36 74
e 36 79
e 36 83
e 36 84
e 36 86
e 36 87
e 36 88
e 36 89
e 36 93
e 36 96
e 36 98
e 36 102
e 36 103
e 36 107
e 37 38
e 37 39
e 37 46
e 37 47
e 37 50
e 37 53
e 37 54
e 37 56
e 37 57
e 37 58
e 37 60
e 37 62
e 37 64
e 37 65
e 37 67
e 37 68
e 37 69
e 37 71
e 37 72
e 37 74
e 37 75
e 37 77
e 37 78
e 37 80
e 37 81
e 37 83
e 37 86
e 37 88
e 37 91
e 37 93
e 37 97
e 37 98
e 37 99
e 37 102
e 37 104
e 37 105
e 37 106
e 37 108
e 37 109
e 38 39
e 38 40
e 38 41
e 38 45
e 38 50
e 38 51
e 38 52
e 38 53
e 38 54
e 38 60
e 38 61
e 38 62
e 38 63
e 38 64
e 38 65
e 38 69
e 38 71
e 38 73
e 38 74
e 38 77
e 38 78
e 38 79
e 38 80
e 38 81
e 38 86
e 38 87
e 38 88
e 38 99
e 38 100
e 38 101
e 38 102
e 38 103
e 38 104
e 38 106
e 38 107
e 38 108
e 39 40
e 39 41
e 39 47
e 39 49
e 39 50
e 39 51
e 39 52
e 39 53
e 39 54
e 39 55
e 39 56
e 39 57
e 39 59
e 39 64
e 39 65
e 39 66
e 39 67
e 39 71
e 39 73
e 39 76
e 39 78
e 39 79
e 39 80
e 39 81
e 39 82
e 39 85
e 39 87
e 39 89
e 39 94
e 39 102
e 39 106
e 39 107
e 39 109
e 40 41
e 40 44
e 40 45
e 40 48
e 40 49
e 40 50
e 40 52
e 40 54
e 40 56
e 40 60
e 40 61
e 40 63
e 40 64
e 40 65
e 40 67
e 40 68
e 40 69
e 40 73
e 40 74
e 40 78
e 40 81
e 40 84
e 40 85
e 40 86
e 40 87
e 40 88
e 40 89
e 40 90
e 40 93
e 40 94
e 40 95
e 40 96
e 40 99
e 40 101
e 40 102
e 40 104
e 40 105
e 40 107
e 40 108
e 41 43
e 41 44
e 41 45
e 41 46
e 41 47
e 41 48
e 41 54
e 41 56
e 41 57
e 41 58
e 41 59
e 41 62
e 41 63
e 41 65
e 41 67
e 41 68
e 41 70
e 41 72
e 41 73
e 41 74
e 41 75
e 41 77
e 41 78
e 41 79
e 41 80
e 41 81
e 41 84
e 41 85
e 41 86
e 41 87
e 41 90
e 41 95
e 41 98
e 41 100
e 41 101
e 41 103
e 41 107
e 41 108
e 42 44
e 42 46
e 42 47
e 42 49
e 42 51
e 42 52
e 42 53
e 42 54
e 42 59
e 42 60
e 42 63
e 42 65
e 42 66
e 42 69
e 42 70
e 42 72
e 42 74
e 42 75
e 42 76
e 42 78
e 42 79
e 42 81
e 42 82
e 42 83
e 42 84
e 42 86
e 42 87
e 42 89
e 42 95
e 42 96
e 42 97
e 42 100
e 42 103
e 42 105
e 43 47
e 43 53
e 43 54
e 43 55
e 43 57
e 43 58
e 43 62
e 43 64
e 43 65
e 43 69
e 43 70
e 43 73
e 43 75
e 43 77
e 43 78
e 43 79
e 43 81
e 43 82
e 43 84
e 43 88
e 43 96
e 43 97
e 43 98
e 43 101
e 43 102
e 43 104
e 43 106
e 43 108
e 44 46
e 44 49
e 44 53
e 44 55
e 44 56
e 44 58
e 44 59
e 44 60
e 44 61
e 44 62
e 44 63
e 44 64
e 44 66
e 44 68
e 44 69
e 44 71
e 44 73
e 44 74
e 44 75
e 44 78
e 44 81
e 44 83
e 44 84
e 44 85
e 44 87
e 44 91
e 44 93
e 44 101
e 44 108
e 45 46
e 45 48
e 45 51
e 45 52
e 45 53
e 45 54
e 45 56
e 45 57
e 45 58
e 45 59
e 45 60
e 45 62
e 45 65
e 45 66
e 45 68
e 45 71
e 45 73
e 45 74
e 45 78
e 45 79
e 45 80
e 45 81
e 45 82
e 45 83
e 45 86
e 45 87
e 45 89
e 45 90
e 45 91
e 45 92
e 45 93
e 45 97
e 45 98
e 45 99
e 45 101
e 45 106
e 46 48
e 46 51
e 46 52
e 46 54
e 46 57
e 46 60
e 46 61
e 46 62
e 46 63
e 46 65
e 46 66
e 46 67
e 46 69
e 46 72
e 46 73
e 46 74
e 46 76
e 46 77
e 46 78
e 46 80
e 46 86
e 46 87
e 46 88
e 46 89
e 46 90
e 46 92
e 46 93
e 46 94
e 46 97
e 46 98
e 46 102
e 46 103
e 46 105
e 46 108
e 47 48
e 47 49
e 47 51
e 47 56
e 47 58
e 47 59
e 47 61
e 47 66
e 47 68
e 47 71
e 47 74
e 47 76
e 47 82
e 47 84
e 47 86
e 47 89
e 47 90
e 47 92
e 47 94
e 47 95
e 47 96
e 47 97
e 47 98
e 47 99
e 47 100
e 47 101
e 47 105
e 47 106
e 47 108
e 47 109
e 48 57
e 48 59
e 48 60
e 48 62
e 48 63
e 48 65
e 48 66
e 48 68
e 48 77
e 48 78
e 48 82
e 48 83
e 48 87
e 48 89
e 48 90
e 48 91
e 48 95
e 48 98
e 48 101
e 48 102
e 48 103
e 48 105
e 48 106
e 48 107
e 49 51
e 49 53
e 49 54
e 49 57
e 49 58
e 49 59
e 49 61
e 49 62
e 49 63
e 49 64
e 49 69
e 49 71
e 49 74
e 49 76
e 49 79
e 49 85
e 49 87
e 49 88
e 49 91
e 49 94
e 49 97
e 49 102
e 49 109
e 50 51
e 50 53
e 50 54
e 50 57
e 50 59
e 50 60
e 50 61
e 50 62
e 50 63
e 50 66
e 50 67
e 50 68
e 50 74
e 50 76
e 50 78
e 50 81
e 50 84
e 50 86
e 50 87
e 50 88
e 50 91
e 50 95
e 50 96
e 50 97
e 50 98
e 50 99
e 50 104
e 50 109
e 51 56
e 51 57
e 51 58
e 51 63
e 51 67
e 51 69
e 51 74
e 51 75
e 51 79
e 51 80
e 51 84
e 51 85
e 51 88
e 51 89
e 51 90
e 51 91
e 51 92
e 51 93
e 51 94
e 51 95
e 51 96
e 51 97
e 51 98
e 51 99
e 51 100
e 51 104
e 51 108
e 51 109
e 52 54
e 52 56
e 52 58
e 52 61
e 52 63
e 52 64
e 52 65
e 52 67
e 52 69
e 52 71
e 52 78
e 52 79
e 52 82
e 52 85
e 52 86
e 52 87
e 52 90
e 52 91
e 52 93
e 52 96
e 52 97
e 52 98
e 52 107
e 52 108
e 52 109
e 53 56
e 53 57
e 53 59
e 53 61
e 53 62
e 53 63
e 53 64
e 53 71
e 53 76
e 53 78
e 53 80
e 53 84
e 53 85
e 53 92
e 53 93
e 53 97
e 53 98
e 53 101
e 53 102
e 53 104
e 53 105
e 53 109
e 54 55
e 54 59
e 54 60
e 54 61
e 54 62
e 54 64
e 54 67
e 54 69
e 54 70
e 54 71
e 54 72
e 54 74
e 54 75
e 54 76
e 54 77
e 54 81
e 54 83
e 54 85
e 54 87
e 54 88
e 54 89
e 54 94
e 54 98
e 54 104
e 54 105
e 54 106
e 54 108
e 54 109
e 55 56
e 55 58
e 55 61
e 55 62
e 55 63
e 55 64
e 55 66
e 55 72
e 55 75
e 55 78
e 55 83
e 55 85
e 55 86
e 55 87
e 55 88
e 55 90
e 55 94
e 55 96
e 55 97
e 55 99
e 55 104
e 55 106
e 56 57
e 56 59
e 56 60
e 56 64
e 56 68
e 56 69
e 56 71
e 56 74
e 56 75
e 56 76
e 56 79
e 56 84
e 56 86
e 56 89
e 56 90
e 56 92
e 56 94
e 56 97
e 56 98
e 56 100
e 56 101
e 56 107
e 57 58
e 57 60
e 57 61
e 57 62
e 57 64
e 57 65
e 57 67
e 57 68
e 57 69
e 57 75
e 57 77
e 57 78
e 57 79
e 57 83
e 57 84
e 57 86
e 57 89
e 57 91
e 57 92
e 57 96
e 57 97
e 57 99
e 57 102
e 57 105
e 57 108
e 58 60
e 58 62
e 58 63
e 58 65
e 58 75
e 58 77
e 58 80
e 58 82
e 58 84
e 58 85
e 58 87
e 58 88
e 58 90
e 58 91
e 58 92
e 58 93
e 58 94
e 58 96
e 58 97
e 58 99
e 58 101
e 58 104
e 58 105
e 58 106
e 58 107
e 58 108
e 59 60
e 59 61
e 59 62
e 59 63
e 59 64
e 59 65
e 59 67
e 59 69
e 59 70
e 59 72
e 59 73
e 59 77
e 59 78
e 59 81
e 59 83
e 59 85
e 59 88
e 59 89
e 59 90
e 59 91
e 59 93
e 59 94
e 59 97
e 59 100
e 59 102
e 59 106
e 59 107
e 59 108
e 59 109
e 60 65
e 60 66
e 60 67
e 60 69
e 60 71
e 60 73
e 60 74
e 60 75
e 60 76
e 60 82
e 60 83
e 60 84
e 60 87
e 60 88
e 60 89
e 60 90
e 60 93
e 60 97
e 60 99
e 60 102
e 60 103
e 60 104
e 60 107
e 61 62
e 61 63
e 61 64
e 61 65
e 61 68
e 61 70
e 61 71
e 61 80
e 61 81
e 61 82
e 61 88
e 61 90
e 61 91
e 61 92
e 61 93
e 61 94
e 61 97
e 61 98
e 61 100
e 61 101
e 61 102
e 61 103
e 61 105
e 61 107
e 61 109
e 62 63
e 62 65
e 62 67
e 62 68
e 62 71
e 62 73
e 62 74
e 62 75
e 62 76
e 62 78
e 62 82
e 62 87
e 62 88
e 62 90
e 62 92
e 62 94
e 62 95
e 62 98
e 62 99
e 62 100
e 62 101
e 62 102
e 62 103
e 63 64
e 63 65
e 63 66
e 63 68
e 63 71
e 63 72
e 63 75
e 63 77
e 63 81
e 63 82
e 63 85
e 63 86
e 63 87
e 63 88
e 63 91
e 63 92
e 63 93
e 63 96
e 63 98
e 63 100
e 63 101
e 63 103
e 63 106
e 63 107
e 63 108
e 63 109
e 64 66
e 64 67
e 64 69
e 64 70
e 64 71
e 64 72
e 64 73
e 64 76
e 64 78
e 64 80
e 64 84
e 64 85
e 64 87
e 64 92
e 64 93
e 64 94
e 64 96
e 64 97
e 64 101
e 64 103
e 64 105
e 65 66
e 65 72
e 65 74
e 65 75
e 65 77
e 65 78
e 65 80
e 65 83
e 65 84
e 65 88
e 65 90
e 65 91
e 65 97
e 65 98
e 65 99
e 65 101
e 65 102
e 65 105
e 65 109
e 66 67
e 66 69
e 66 71
e 66 72
e 66 73
e 66 74
e 66 75
e 66 78
e 66 79
e 66 80
e 66 81
e 66 82
e 66 83
e 66 84
e 66 86
e 66 88
e 66 90
e 66 92
e 66 95
e 66 96
e 66 97
e 66 101
e 66 102
e 66 105
e 66 107
e 66 108
e 66 109
e 67 69
e 67 70
e 67 73
e 67 78
e 67 79
e 67 80
e 67 84
e 67 85
e 67 86
e 67 88
e 67 89
e 67 90
e 67 92
e 67 94
e 67 96
e 67 99
e 67 102
e 67 103
e 67 109
e 68 70
e 68 73
e 68 76
e 68 77
e 68 78
e 68 80
e 68 84
e 68 85
e 68 88
e 68 89
e 68 90
e 68 91
e 68 93
e 68 98
e 68 99
e 68 101
e 68 102
e 68 104
e 68 105
e 68 107
e 69 73
e 69 80
e 69 83
e 69 85
e 69 89
e 69 91
e 69 93
e 69 97
e 69 100
e 69 102
e 69 103
e 69 105
e 69 108
e 70 72
e 70 73
e 70 76
e 70 77
e 70 79
e 70 84
e 70 85
e 70 86
e 70 87
e 70 89
e 70 90
e 70 91
e 70 92
e 70 93
e 70 94
e 70 95
e 70 98
e 70 99
e 70 101
e 71 73
e 71 76
e 71 79
e 71 80
e 71 82
e 71 83
e 71 84
e 71 86
e 71 89
e 71 90
e 71 91
e 71 92
e 71 95
e 71 96
e 71 97
e 71 98
e 71 99
e 71 101
e 71 102
e 71 103
e 71 105
e 72 74
e 72 75
e 72 77
e 72 78
e 72 80
e 72 81
e 72 82
e 72 83
e 72 84
e 72 87
e 72 88
e 72 89
e 72 90
e 72 91
e 72 93
e 72 95
e 72 96
e 72 97
e 72 98
e 72 99
e 72 101
e 72 102
e 72 105
e 72 106
e 72 109
e 73 74
e 73 76
e 73 77
e 73 82
e 73 84
e 73 88
e 73 89
e 73 90
e 73 91
e 73 92
e 73 95
e 73 96
e 73 99
e 73 101
e 73 103
e 73 104
e 73 109
e 74 76
e 74 79
e 74 81
e 74 82
e 74 83
e 74 85
e 74 86
e 74 90
e 74 91
e 74 93
e 74 94
e 74 95
e 74 96
e 74 99
e 74 100
e 74 101
e 74 103
e 74 104
e 74 105
e 74 106
e 74 109
e 75 76
e 75 78
e 75 79
e 75 80
e 75 82
e 75 88
e 75 89
e 75 91
e 75 92
e 75 93
e 75 94
e 75 96
e 75 97
e 75 98
e 75 100
e 75 102
e 75 103
e 75 104
e 75 107
e 75 108
e 75 109
e 76 77
e 76 80
e 76 81
e 76 82
e 76 84
e 76 86
e 76 89
e 76 90
e 76 91
e 76 93
e 76 94
e 76 95
e 76 96
e 76 98
e 76 100
e 76 101
e 76 104
e 76 105
e 76 109
e 77 78
e 77 80
e 77 81
e 77 83
e 77 87
e 77 88
e 77 89
e 77 90
e 77 91
e 77 92
e 77 93
e 77 98
e 77 100
e 77 101
e 77 103
e 77 109
e 78 79
e 78 81
e 78 82
e 78 83
e 78 86
e 78 90
e 78 92
e 78 93
e 78 95
e 78 98
e 78 103
e 78 107
e 78 109
e 79 81
e 79 84
e 79 88
e 79 90
e 79 91
e 79 92
e 79 93
e 79 97
e 79 98
e 79 103
e 79 104
e 79 105
e 79 106
e 79 107
e 79 109
e 80 84
e 80 85
e 80 87
e 80 88
e 80 89
e 80 100
e 80 102
e 80 103
e 80 107
e 80 108
e 80 109
e 81 82
e 81 83
e 81 84
e 81 89
e 81 91
e 81 96
e 81 101
e 81 104
e 81 106
e 82 83
e 82 86
e 82 87
e 82 88
e 82 93
e 82 96
e 82 99
e 82 103
e 82 104
e 82 106
e 82 108
e 83 85
e 83 88
e 83 91
e 83 92
e 83 95
e 83 96
e 83 98
e 83 104
e 83 106
e 83 107
e 84 89
e 84 93
e 84 95
e 84 98
e 84 99
e 84 100
e 84 101
e 84 103
e 84 104
e 84 105
e 84 107
e 84 109
e 85 87
e 85 88
e 85 89
e 85 90
e 85 91
e 85 93
e 85 98
e 85 99
e 85 103
e 85 104
e 85 107
e 86 87
e 86 88
e 86 90
e 86 91
e 86 95
e 86 97
e 86 101
e 86 104
e 86 105
e 86 106
e 86 107
e 86 108
e 86 109
e 87 89
e 87 91
e 87 92
e 87 97
e 87 98
e 87 99
e 87 100
e 87 101
e 87 103
e 87 105
e 87 107
e 88 91
e 88 93
e 88 94
e 88 96
e 88 98
e 88 100
e 88 102
e 88 107
e 88 109
e 89 92
e 89 96
e 89 97
e 89 98
e 89 99
e 89 100
e 89 102
e 89 103
e 89 104
e 89 107
e 90 91
e 90 92
e 90 94
e 90 101
e 90 102
e 90 104
e 90 105
e 90 108
e 90 109
e 91 93
e 91 94
e 91 98
e 91 99
e 91 100
e 91 101
e 91 102
e 91 104
e 91 107
e 91 108
e 91 109
e 92 93
e 92 94
e 92 96
e 92 97
e 92 98
e 92 103
e 92 105
e 92 106
e 92 109
e 93 94
e 93 96
e 93 97
e 93 98
e 93 99
e 93 100
e 93 102
e 93 105
e 93 106
e 93 107
e 94 96
e 94 99
e 94 101
e 94 104
e 94 105
e 94 106
e 94 109
e 95 97
e 95 98
e 95 99
e 95 100
e 95 101
e 95 102
e 95 103
e 95 104
e 95 105
e 95 107
e 96 101
e 96 102
e 96 103
e 96 107
e 96 108
e 97 99
e 97 101
e 97 102
e 97 103
e 97 106
e 97 108
e 98 99
e 98 103
e 98 104
e 98 107
e 98 108
e 98 109
e 99 101
e 99 102
e 99 106
e 99 107
e 99 108
e 100 103
e 100 106
e 100 107
e 100 109
e 101 102
e 101 108
e 101 109
e 102 103
e 102 104
e 102 108
e 103 106
e 103 109
e 104 105
e 104 108
e 104 109
e 105 106
e 105 108
e 105 109
e 107 108
